400 1584 
1 5 1
1 6 1
1 7 1
1 8 1
1 9 1
1 13 1
1 20 1
1 22 1
1 29 1
1 31 1
1 35 1
1 42 1
1 45 1
1 54 1
1 83 1
1 98 1
1 112 1
1 136 1
1 163 1
1 172 1
1 181 1
1 187 1
1 197 1
1 204 1
1 206 1
1 283 1
1 303 1
1 304 1
1 317 1
1 368 1
2 5 1
2 10 1
2 11 1
2 30 1
2 82 1
2 87 1
2 90 1
2 132 1
2 215 1
2 218 1
2 227 1
2 279 1
2 294 1
2 366 1
2 398 1
3 5 1
3 6 1
3 7 1
3 8 1
3 11 1
3 12 1
3 14 1
3 15 1
3 16 1
3 17 1
3 20 1
3 23 1
3 28 1
3 32 1
3 38 1
3 39 1
3 44 1
3 46 1
3 50 1
3 56 1
3 58 1
3 103 1
3 105 1
3 111 1
3 123 1
3 134 1
3 142 1
3 159 1
3 167 1
3 179 1
3 200 1
3 205 1
3 213 1
3 220 1
3 239 1
3 260 1
3 264 1
3 267 1
3 273 1
3 285 1
3 304 1
3 318 1
3 325 1
3 345 1
3 370 1
3 387 1
3 397 1
4 5 1
4 6 1
4 8 1
4 9 1
4 11 1
4 12 1
4 16 1
4 20 1
4 22 1
4 35 1
4 37 1
4 39 1
4 44 1
4 47 1
4 50 1
4 53 1
4 55 1
4 62 1
4 64 1
4 65 1
4 69 1
4 76 1
4 78 1
4 85 1
4 86 1
4 89 1
4 95 1
4 97 1
4 105 1
4 108 1
4 126 1
4 143 1
4 160 1
4 170 1
4 173 1
4 181 1
4 189 1
4 191 1
4 192 1
4 256 1
4 264 1
4 265 1
4 269 1
4 275 1
4 310 1
4 330 1
4 362 1
4 389 1
4 391 1
4 393 1
5 6 1
5 7 1
5 13 1
5 14 1
5 16 1
5 17 1
5 19 1
5 20 1
5 22 1
5 26 1
5 27 1
5 33 1
5 39 1
5 47 1
5 57 1
5 60 1
5 61 1
5 70 1
5 71 1
5 73 1
5 74 1
5 81 1
5 82 1
5 87 1
5 98 1
5 102 1
5 118 1
5 119 1
5 127 1
5 130 1
5 132 1
5 140 1
5 150 1
5 153 1
5 155 1
5 170 1
5 176 1
5 178 1
5 184 1
5 197 1
5 204 1
5 205 1
5 210 1
5 214 1
5 219 1
5 229 1
5 232 1
5 240 1
5 258 1
5 264 1
5 265 1
5 266 1
5 270 1
5 281 1
5 292 1
5 306 1
5 323 1
5 342 1
5 348 1
5 351 1
5 367 1
5 379 1
5 384 1
5 395 1
6 7 1
6 8 1
6 9 1
6 10 1
6 21 1
6 23 1
6 45 1
6 54 1
6 57 1
6 58 1
6 63 1
6 70 1
6 89 1
6 103 1
6 111 1
6 133 1
6 136 1
6 148 1
6 157 1
6 159 1
6 163 1
6 171 1
6 173 1
6 192 1
6 210 1
6 217 1
6 219 1
6 222 1
6 232 1
6 243 1
6 247 1
6 249 1
6 269 1
6 274 1
6 285 1
6 291 1
6 293 1
6 306 1
6 329 1
6 345 1
6 347 1
6 365 1
6 382 1
6 387 1
7 10 1
7 12 1
7 13 1
7 18 1
7 21 1
7 24 1
7 25 1
7 26 1
7 28 1
7 33 1
7 39 1
7 40 1
7 49 1
7 88 1
7 107 1
7 117 1
7 125 1
7 126 1
7 138 1
7 140 1
7 145 1
7 158 1
7 162 1
7 166 1
7 178 1
7 186 1
7 199 1
7 230 1
7 262 1
7 274 1
7 305 1
7 307 1
7 312 1
7 338 1
8 9 1
8 10 1
8 11 1
8 12 1
8 14 1
8 15 1
8 17 1
8 30 1
8 34 1
8 37 1
8 38 1
8 40 1
8 42 1
8 44 1
8 46 1
8 47 1
8 48 1
8 49 1
8 51 1
8 61 1
8 63 1
8 65 1
8 74 1
8 83 1
8 119 1
8 120 1
8 172 1
8 184 1
8 185 1
8 193 1
8 201 1
8 207 1
8 217 1
8 220 1
8 225 1
8 241 1
8 247 1
8 250 1
8 252 1
8 311 1
8 322 1
8 328 1
8 332 1
8 344 1
8 368 1
8 369 1
8 374 1
8 383 1
9 13 1
9 15 1
9 16 1
9 18 1
9 19 1
9 21 1
9 23 1
9 24 1
9 27 1
9 31 1
9 34 1
9 38 1
9 41 1
9 45 1
9 48 1
9 53 1
9 54 1
9 57 1
9 65 1
9 66 1
9 67 1
9 74 1
9 76 1
9 77 1
9 106 1
9 107 1
9 112 1
9 116 1
9 117 1
9 143 1
9 144 1
9 176 1
9 180 1
9 182 1
9 228 1
9 230 1
9 254 1
9 256 1
9 271 1
9 277 1
9 279 1
9 290 1
9 312 1
9 324 1
9 362 1
9 365 1
9 386 1
9 398 1
10 67 1
10 88 1
10 136 1
10 203 1
10 305 1
10 326 1
10 348 1
10 358 1
11 14 1
11 17 1
11 22 1
11 26 1
11 34 1
11 35 1
11 36 1
11 55 1
11 72 1
11 111 1
11 146 1
11 163 1
11 176 1
11 189 1
11 190 1
11 193 1
11 196 1
11 212 1
11 215 1
11 230 1
11 246 1
11 290 1
11 292 1
11 299 1
11 301 1
11 310 1
11 355 1
11 397 1
12 15 1
12 18 1
12 21 1
12 24 1
12 28 1
12 33 1
12 43 1
12 49 1
12 61 1
12 75 1
12 78 1
12 83 1
12 84 1
12 102 1
12 108 1
12 119 1
12 129 1
12 144 1
12 188 1
12 202 1
12 253 1
12 276 1
12 303 1
12 384 1
12 387 1
13 18 1
13 25 1
13 27 1
13 57 1
13 69 1
13 75 1
13 148 1
13 160 1
13 226 1
13 250 1
13 340 1
13 372 1
14 19 1
14 27 1
14 29 1
14 32 1
14 43 1
14 68 1
14 97 1
14 122 1
14 150 1
14 158 1
14 248 1
14 259 1
14 300 1
14 327 1
14 361 1
14 380 1
15 25 1
15 26 1
15 28 1
15 32 1
15 52 1
15 64 1
15 66 1
15 68 1
15 80 1
15 87 1
15 107 1
15 109 1
15 127 1
15 169 1
15 233 1
15 245 1
15 260 1
15 332 1
15 396 1
15 400 1
16 23 1
16 24 1
16 29 1
16 41 1
16 48 1
16 51 1
16 59 1
16 62 1
16 78 1
16 85 1
16 115 1
16 151 1
16 181 1
16 212 1
16 234 1
16 267 1
16 286 1
16 313 1
16 385 1
16 398 1
17 19 1
17 30 1
17 53 1
17 72 1
17 86 1
17 94 1
17 104 1
17 105 1
17 115 1
17 120 1
17 123 1
17 135 1
17 149 1
17 156 1
17 199 1
17 207 1
17 225 1
17 237 1
17 248 1
17 310 1
17 353 1
17 375 1
17 389 1
18 99 1
18 256 1
18 296 1
19 25 1
19 60 1
19 79 1
19 88 1
19 93 1
19 110 1
19 132 1
19 147 1
19 200 1
19 214 1
19 221 1
19 284 1
19 293 1
19 302 1
19 355 1
19 385 1
20 56 1
20 59 1
20 110 1
20 141 1
20 152 1
20 156 1
20 203 1
20 219 1
20 225 1
20 239 1
20 261 1
20 262 1
20 269 1
20 356 1
21 30 1
21 31 1
21 41 1
21 51 1
21 59 1
21 61 1
21 66 1
21 82 1
21 87 1
21 108 1
21 110 1
21 123 1
21 132 1
21 138 1
21 164 1
21 165 1
21 172 1
21 211 1
21 250 1
21 324 1
21 333 1
21 372 1
21 392 1
21 395 1
22 31 1
22 68 1
22 116 1
22 227 1
22 232 1
22 275 1
22 277 1
22 325 1
22 351 1
22 362 1
22 377 1
23 35 1
23 46 1
23 62 1
23 63 1
23 66 1
23 75 1
23 142 1
23 161 1
23 195 1
23 231 1
23 240 1
23 259 1
23 280 1
24 227 1
25 155 1
25 287 1
25 317 1
25 334 1
26 32 1
26 36 1
26 37 1
26 42 1
26 44 1
26 51 1
26 52 1
26 58 1
26 71 1
26 77 1
26 80 1
26 114 1
26 117 1
26 126 1
26 150 1
26 190 1
26 198 1
26 213 1
26 218 1
26 239 1
26 251 1
26 270 1
26 276 1
26 315 1
26 358 1
26 372 1
26 397 1
27 29 1
27 43 1
27 47 1
27 92 1
27 95 1
27 108 1
27 128 1
27 133 1
27 139 1
27 150 1
27 151 1
27 177 1
27 180 1
27 191 1
27 204 1
27 231 1
27 236 1
27 244 1
27 286 1
27 302 1
27 329 1
27 343 1
27 392 1
28 90 1
28 102 1
28 161 1
28 164 1
28 167 1
28 172 1
28 184 1
28 206 1
28 236 1
28 279 1
28 303 1
28 315 1
28 326 1
28 330 1
28 336 1
28 392 1
29 33 1
29 36 1
29 38 1
29 43 1
29 56 1
29 60 1
29 70 1
29 114 1
29 174 1
29 181 1
29 193 1
29 195 1
29 198 1
29 216 1
29 242 1
29 252 1
29 259 1
29 275 1
29 278 1
29 307 1
29 316 1
29 360 1
29 381 1
29 388 1
30 45 1
30 138 1
30 219 1
30 220 1
30 230 1
30 241 1
30 335 1
31 34 1
31 40 1
31 55 1
31 60 1
31 68 1
31 82 1
31 84 1
31 124 1
31 126 1
31 131 1
31 145 1
31 152 1
31 154 1
31 162 1
31 167 1
31 170 1
31 196 1
31 203 1
31 282 1
31 288 1
31 314 1
31 346 1
32 40 1
32 80 1
32 83 1
32 86 1
32 88 1
32 120 1
32 129 1
32 135 1
32 161 1
32 175 1
32 192 1
32 234 1
32 254 1
32 257 1
32 273 1
32 337 1
32 379 1
32 384 1
33 36 1
33 37 1
33 69 1
33 80 1
33 114 1
33 192 1
33 208 1
33 266 1
34 42 1
34 70 1
34 117 1
34 131 1
34 151 1
34 182 1
34 327 1
35 67 1
35 89 1
35 171 1
35 257 1
35 371 1
36 48 1
36 163 1
36 221 1
36 297 1
36 364 1
36 391 1
37 115 1
37 127 1
37 149 1
37 267 1
37 276 1
37 344 1
38 41 1
38 53 1
38 56 1
38 100 1
38 106 1
38 205 1
38 212 1
38 226 1
38 254 1
38 265 1
38 271 1
38 280 1
38 295 1
38 307 1
38 361 1
38 375 1
39 62 1
39 177 1
39 348 1
40 46 1
40 50 1
40 93 1
40 96 1
40 151 1
40 171 1
40 178 1
40 367 1
41 75 1
41 79 1
41 84 1
41 86 1
41 95 1
41 99 1
41 208 1
41 216 1
41 253 1
41 270 1
41 274 1
41 284 1
41 288 1
41 291 1
41 385 1
42 49 1
43 54 1
43 73 1
43 101 1
43 154 1
43 158 1
43 268 1
44 64 1
44 124 1
44 183 1
44 196 1
44 229 1
44 301 1
44 310 1
44 314 1
44 333 1
44 344 1
45 52 1
45 81 1
45 84 1
45 121 1
45 135 1
45 140 1
45 184 1
45 239 1
45 253 1
45 273 1
45 275 1
45 284 1
45 311 1
45 339 1
45 341 1
45 359 1
46 52 1
46 71 1
46 91 1
46 93 1
46 121 1
46 156 1
46 168 1
46 228 1
46 263 1
46 318 1
46 338 1
46 373 1
46 399 1
47 55 1
47 63 1
47 110 1
47 127 1
47 174 1
47 182 1
47 217 1
47 237 1
47 243 1
47 299 1
47 331 1
48 112 1
48 134 1
48 146 1
48 221 1
48 241 1
48 244 1
48 271 1
48 278 1
48 304 1
48 334 1
48 389 1
48 390 1
49 50 1
49 58 1
49 65 1
49 71 1
49 74 1
49 90 1
49 97 1
49 116 1
49 131 1
49 133 1
49 144 1
49 148 1
49 149 1
49 165 1
49 166 1
49 169 1
49 206 1
49 263 1
49 323 1
50 76 1
50 78 1
51 89 1
51 99 1
51 118 1
51 133 1
51 281 1
51 289 1
51 293 1
51 298 1
51 359 1
51 364 1
51 398 1
52 81 1
52 137 1
52 354 1
52 399 1
53 59 1
53 85 1
53 91 1
53 96 1
53 98 1
53 134 1
53 155 1
53 205 1
53 249 1
54 97 1
54 100 1
54 113 1
54 114 1
54 152 1
54 159 1
54 187 1
54 291 1
54 349 1
55 109 1
55 209 1
55 213 1
55 397 1
56 67 1
56 69 1
56 72 1
56 79 1
56 93 1
56 104 1
56 122 1
56 139 1
56 204 1
56 304 1
56 322 1
57 77 1
57 122 1
57 190 1
57 199 1
57 242 1
58 153 1
58 210 1
58 260 1
58 350 1
58 391 1
59 64 1
59 92 1
59 101 1
59 104 1
59 128 1
59 140 1
59 156 1
59 174 1
59 308 1
60 129 1
60 174 1
60 207 1
60 209 1
60 223 1
60 334 1
61 73 1
61 231 1
61 394 1
61 396 1
62 125 1
62 180 1
62 197 1
63 125 1
63 142 1
63 186 1
63 299 1
64 77 1
64 91 1
64 92 1
64 101 1
64 362 1
65 73 1
65 85 1
65 274 1
65 288 1
65 380 1
65 395 1
66 81 1
66 94 1
66 103 1
66 105 1
66 141 1
66 175 1
66 194 1
66 268 1
66 298 1
66 316 1
66 335 1
67 103 1
67 364 1
68 72 1
68 79 1
68 96 1
68 101 1
68 182 1
68 187 1
68 243 1
68 328 1
68 366 1
69 116 1
69 162 1
69 245 1
69 354 1
70 134 1
71 90 1
71 99 1
71 100 1
71 109 1
71 139 1
71 143 1
71 145 1
71 180 1
71 224 1
71 238 1
71 291 1
71 305 1
71 333 1
71 358 1
71 373 1
71 387 1
72 229 1
72 249 1
72 318 1
72 377 1
72 383 1
73 76 1
73 221 1
73 255 1
73 258 1
73 375 1
74 120 1
74 148 1
74 226 1
74 258 1
74 312 1
74 326 1
75 94 1
76 111 1
76 232 1
76 242 1
76 272 1
76 328 1
76 363 1
77 94 1
77 135 1
77 222 1
77 235 1
77 288 1
78 165 1
78 320 1
79 102 1
79 237 1
79 262 1
79 272 1
79 289 1
79 297 1
79 342 1
80 208 1
81 153 1
81 154 1
81 269 1
81 331 1
82 91 1
82 92 1
82 173 1
82 223 1
82 378 1
83 183 1
83 186 1
83 287 1
83 330 1
83 363 1
84 96 1
84 100 1
84 128 1
84 200 1
84 211 1
84 231 1
84 265 1
84 281 1
84 298 1
84 320 1
84 342 1
84 356 1
84 359 1
84 390 1
85 335 1
85 381 1
86 107 1
86 123 1
86 141 1
86 284 1
86 309 1
86 379 1
87 118 1
88 106 1
88 121 1
88 130 1
88 170 1
88 295 1
88 320 1
89 160 1
89 201 1
89 226 1
89 237 1
90 143 1
90 146 1
90 167 1
90 201 1
90 215 1
90 217 1
90 240 1
90 294 1
90 350 1
91 147 1
91 168 1
91 202 1
91 223 1
92 106 1
92 113 1
92 122 1
92 138 1
92 141 1
92 166 1
92 245 1
92 282 1
92 334 1
92 367 1
92 382 1
93 95 1
93 109 1
93 124 1
93 139 1
94 98 1
94 115 1
94 137 1
94 246 1
95 142 1
95 147 1
95 187 1
95 196 1
95 216 1
95 290 1
96 215 1
96 328 1
96 356 1
97 113 1
97 131 1
97 179 1
97 189 1
97 301 1
97 396 1
98 125 1
98 195 1
99 233 1
99 296 1
99 329 1
99 395 1
100 104 1
100 130 1
100 153 1
100 157 1
100 179 1
100 211 1
100 235 1
100 336 1
101 113 1
101 168 1
101 263 1
101 388 1
102 183 1
102 186 1
102 233 1
102 258 1
102 264 1
102 266 1
102 311 1
103 198 1
104 164 1
104 224 1
104 276 1
104 286 1
105 118 1
105 159 1
105 200 1
105 238 1
105 376 1
106 177 1
106 178 1
106 211 1
106 252 1
106 333 1
106 379 1
106 393 1
107 248 1
107 280 1
108 175 1
109 173 1
109 296 1
109 302 1
110 124 1
110 128 1
110 154 1
110 197 1
111 112 1
111 119 1
111 175 1
111 278 1
111 347 1
112 121 1
112 229 1
112 256 1
112 298 1
113 260 1
113 360 1
114 137 1
114 255 1
114 384 1
114 394 1
115 209 1
115 228 1
116 311 1
116 365 1
117 338 1
117 353 1
117 386 1
118 157 1
118 207 1
118 222 1
118 248 1
118 263 1
118 268 1
118 364 1
119 144 1
119 199 1
119 257 1
119 292 1
119 317 1
119 356 1
119 371 1
119 373 1
120 198 1
121 236 1
122 261 1
122 325 1
123 193 1
123 346 1
123 374 1
124 176 1
124 272 1
125 130 1
125 323 1
125 324 1
125 344 1
125 371 1
125 388 1
126 185 1
126 208 1
127 149 1
127 253 1
127 295 1
127 347 1
128 129 1
128 161 1
128 165 1
128 214 1
128 251 1
128 282 1
129 145 1
129 168 1
129 212 1
129 214 1
129 306 1
129 313 1
129 325 1
129 369 1
130 222 1
130 235 1
130 312 1
130 337 1
132 136 1
132 171 1
132 185 1
132 369 1
133 157 1
133 308 1
134 137 1
134 160 1
134 297 1
135 190 1
135 391 1
135 393 1
136 255 1
136 377 1
136 380 1
137 146 1
137 162 1
137 326 1
138 218 1
138 224 1
138 247 1
138 267 1
139 270 1
139 281 1
139 375 1
140 357 1
141 155 1
141 340 1
142 188 1
142 283 1
143 147 1
143 209 1
143 223 1
143 244 1
143 308 1
143 342 1
143 374 1
143 376 1
144 189 1
144 191 1
144 340 1
146 166 1
146 194 1
146 320 1
146 322 1
146 352 1
146 400 1
148 313 1
148 316 1
149 152 1
149 183 1
149 309 1
151 158 1
151 191 1
151 300 1
151 354 1
151 373 1
151 386 1
151 388 1
152 225 1
152 352 1
153 179 1
153 257 1
153 341 1
153 343 1
154 255 1
154 382 1
156 353 1
158 164 1
158 220 1
159 346 1
160 169 1
161 188 1
161 313 1
161 316 1
161 336 1
162 202 1
162 285 1
162 380 1
163 261 1
165 195 1
165 213 1
165 315 1
165 376 1
166 194 1
166 216 1
166 296 1
168 169 1
168 210 1
168 233 1
168 277 1
169 177 1
169 218 1
169 224 1
171 234 1
171 246 1
171 343 1
171 354 1
172 203 1
172 206 1
175 252 1
175 350 1
176 293 1
176 331 1
180 301 1
180 357 1
181 185 1
181 188 1
181 283 1
182 194 1
182 201 1
182 242 1
182 247 1
182 251 1
182 278 1
182 306 1
182 319 1
183 235 1
183 268 1
184 282 1
185 245 1
185 339 1
186 202 1
186 337 1
186 361 1
186 385 1
189 299 1
189 374 1
190 272 1
191 246 1
191 280 1
193 250 1
194 335 1
194 368 1
194 383 1
196 241 1
198 319 1
198 360 1
198 378 1
199 321 1
200 227 1
201 302 1
203 292 1
203 309 1
204 273 1
204 321 1
204 343 1
205 308 1
206 261 1
206 300 1
207 332 1
208 287 1
208 289 1
208 295 1
208 349 1
210 243 1
210 330 1
210 355 1
211 228 1
211 307 1
211 314 1
211 341 1
212 346 1
212 381 1
214 359 1
215 350 1
216 262 1
218 234 1
218 238 1
218 251 1
218 279 1
218 367 1
219 259 1
222 370 1
223 324 1
224 286 1
225 352 1
225 370 1
226 238 1
228 314 1
228 394 1
229 290 1
231 322 1
231 372 1
231 394 1
232 277 1
232 297 1
233 236 1
238 249 1
238 315 1
238 318 1
239 240 1
240 244 1
240 317 1
240 339 1
241 271 1
244 266 1
244 386 1
244 389 1
246 378 1
248 341 1
250 390 1
251 351 1
253 254 1
253 352 1
253 366 1
257 399 1
259 305 1
259 370 1
260 321 1
261 355 1
264 289 1
265 339 1
265 357 1
265 358 1
265 382 1
273 283 1
273 303 1
273 396 1
274 285 1
277 287 1
277 294 1
277 319 1
277 332 1
277 349 1
278 319 1
278 327 1
282 294 1
282 327 1
283 300 1
286 376 1
287 329 1
289 347 1
289 365 1
292 321 1
297 336 1
298 357 1
299 337 1
300 363 1
301 366 1
305 353 1
307 309 1
307 377 1
309 323 1
310 363 1
313 351 1
318 331 1
319 368 1
322 338 1
322 371 1
322 399 1
325 345 1
326 369 1
327 345 1
327 349 1
328 378 1
332 340 1
334 360 1
337 348 1
343 392 1
346 390 1
347 361 1
351 400 1
354 383 1
360 381 1
366 393 1
397 400 1
